52
raw_data/mm-rcpsp/MMLIB50/J5011_2.mm
Time limit set to 60 seconds
Running CP solver
/home/omastto1/General-Optimization-Solver/src/solvers/mmrcpsp.py:42(stream:276:6): Warning: Cumulative expression 'pulse': height is zero, expression is zero everywhere.
                                                                                               VarCumulAtom_419 = pulse(task_0_mode_0, 0)
/home/omastto1/General-Optimization-Solver/src/solvers/mmrcpsp.py:42(stream:276:3906): Warning: Cumulative expression 'pulse': height is zero, expression is zero everywhere.
                                                                                                  VarCumulAtom_570 = pulse(task_51_mode_0, 0)
/home/omastto1/General-Optimization-Solver/src/solvers/mmrcpsp.py:42(stream:277:6): Warning: Cumulative expression 'pulse': height is zero, expression is zero everywhere.
                                                                                               VarCumulAtom_574 = pulse(task_0_mode_0, 0)
/home/omastto1/General-Optimization-Solver/src/solvers/mmrcpsp.py:42(stream:277:3911): Warning: Cumulative expression 'pulse': height is zero, expression is zero everywhere.
                                                                                                  VarCumulAtom_725 = pulse(task_51_mode_0, 0)
 ! --------------------------------------------------- CP Optimizer 20.1.0.0 --
 ! Minimization problem - 205 variables, 257 constraints
 ! TimeLimit            = 60
 ! Workers              = 14
 ! LogVerbosity         = Terse
 ! Initial process time : 0.00s (0.00s extraction + 0.00s propagation)
 !  . Log search space  : 520.5 (before), 520.5 (after)
 !  . Memory usage      : 1.3 MB (before), 1.3 MB (after)
 ! Using parallel search with 14 workers.
 ! ----------------------------------------------------------------------------
 !          Best Branches  Non-fixed    W       Branch decision
                        0        205                 -
 + New bound is 20
 ! Using iterative diving.
 ! Using temporal relaxation.
 *            54      117  0.88s        1      (gap is 62.96%)
 *            53      321  0.88s        1      (gap is 62.26%)
 *            41      515  0.88s        1      (gap is 51.22%)
 *            40      623  0.88s        1      (gap is 50.00%)
 *            38      887  0.88s        1      (gap is 47.37%)
 *            37     1087  0.88s        1      (gap is 45.95%)
 *            36     1270  0.88s        1      (gap is 44.44%)
 *            35     1580  0.88s        1      (gap is 42.86%)
 *            34     2155  0.88s        1      (gap is 41.18%)
 *            33     2642  1.63s        4      (gap is 39.39%)
 ! Using failure-directed search.
 *            32     8334  2.41s        1      (gap is 37.50%)
 *            31     8729  2.41s        2      (gap is 35.48%)
 *            30    19176  4.71s        7      (gap is 33.33%)
 *            29    90900  23.28s      11      (gap is 31.03%)
 ! ----------------------------------------------------------------------------
 ! Search terminated by limit, 14 solutions found.
 ! Best objective         : 29 (gap is 31.03%)
 ! Best bound             : 20
 ! ----------------------------------------------------------------------------
 ! Number of branches     : 5422859
 ! Number of fails        : 1114544
 ! Total memory usage     : 19.7 MB (19.5 MB CP Optimizer + 0.2 MB Concert)
 ! Time spent in solve    : 60.03s (60.03s engine + 0.00s extraction)
 ! Search speed (br. / s) : 90350.9
 ! ----------------------------------------------------------------------------
task_0: (start=0, end=0, size=0, length=0)
Task 0 is scheduled in mode 0 from 0 to 0
task_1: (start=0, end=3, size=3, length=3)
Task 1 is scheduled in mode 0 from 0 to 3
task_2: (start=0, end=1, size=1, length=1)
Task 2 is scheduled in mode 0 from 0 to 1
task_3: (start=3, end=7, size=4, length=4)
Task 3 is scheduled in mode 0 from 3 to 7
task_4: (start=0, end=5, size=5, length=5)
Task 4 is scheduled in mode 1 from 0 to 5
task_5: (start=0, end=3, size=3, length=3)
Task 5 is scheduled in mode 0 from 0 to 3
task_6: (start=10, end=12, size=2, length=2)
Task 6 is scheduled in mode 0 from 10 to 12
task_7: (start=3, end=9, size=6, length=6)
Task 7 is scheduled in mode 2 from 3 to 9
task_8: (start=2, end=6, size=4, length=4)
Task 8 is scheduled in mode 1 from 2 to 6
task_9: (start=7, end=9, size=2, length=2)
Task 9 is scheduled in mode 0 from 7 to 9
task_10: (start=12, end=15, size=3, length=3)
Task 10 is scheduled in mode 0 from 12 to 15
task_11: (start=9, end=12, size=3, length=3)
Task 11 is scheduled in mode 0 from 9 to 12
task_12: (start=10, end=15, size=5, length=5)
Task 12 is scheduled in mode 0 from 10 to 15
task_13: (start=5, end=10, size=5, length=5)
Task 13 is scheduled in mode 2 from 5 to 10
task_14: (start=3, end=9, size=6, length=6)
Task 14 is scheduled in mode 0 from 3 to 9
task_15: (start=1, end=8, size=7, length=7)
Task 15 is scheduled in mode 2 from 1 to 8
task_16: (start=8, end=10, size=2, length=2)
Task 16 is scheduled in mode 0 from 8 to 10
task_17: (start=0, end=1, size=1, length=1)
Task 17 is scheduled in mode 0 from 0 to 1
task_18: (start=17, end=19, size=2, length=2)
Task 18 is scheduled in mode 0 from 17 to 19
task_19: (start=1, end=2, size=1, length=1)
Task 19 is scheduled in mode 0 from 1 to 2
task_20: (start=9, end=16, size=7, length=7)
Task 20 is scheduled in mode 2 from 9 to 16
task_21: (start=0, end=3, size=3, length=3)
Task 21 is scheduled in mode 0 from 0 to 3
task_22: (start=3, end=5, size=2, length=2)
Task 22 is scheduled in mode 0 from 3 to 5
task_23: (start=6, end=8, size=2, length=2)
Task 23 is scheduled in mode 0 from 6 to 8
task_24: (start=5, end=6, size=1, length=1)
Task 24 is scheduled in mode 0 from 5 to 6
task_25: (start=16, end=17, size=1, length=1)
Task 25 is scheduled in mode 0 from 16 to 17
task_26: (start=18, end=24, size=6, length=6)
Task 26 is scheduled in mode 1 from 18 to 24
task_27: (start=10, end=12, size=2, length=2)
Task 27 is scheduled in mode 0 from 10 to 12
task_28: (start=23, end=26, size=3, length=3)
Task 28 is scheduled in mode 0 from 23 to 26
task_29: (start=17, end=18, size=1, length=1)
Task 29 is scheduled in mode 0 from 17 to 18
task_30: (start=19, end=22, size=3, length=3)
Task 30 is scheduled in mode 1 from 19 to 22
task_31: (start=16, end=17, size=1, length=1)
Task 31 is scheduled in mode 0 from 16 to 17
task_32: (start=15, end=17, size=2, length=2)
Task 32 is scheduled in mode 0 from 15 to 17
task_33: (start=22, end=23, size=1, length=1)
Task 33 is scheduled in mode 0 from 22 to 23
task_34: (start=12, end=20, size=8, length=8)
Task 34 is scheduled in mode 1 from 12 to 20
task_35: (start=12, end=16, size=4, length=4)
Task 35 is scheduled in mode 0 from 12 to 16
task_36: (start=17, end=24, size=7, length=7)
Task 36 is scheduled in mode 1 from 17 to 24
task_37: (start=15, end=24, size=9, length=9)
Task 37 is scheduled in mode 2 from 15 to 24
task_38: (start=8, end=10, size=2, length=2)
Task 38 is scheduled in mode 0 from 8 to 10
task_39: (start=25, end=29, size=4, length=4)
Task 39 is scheduled in mode 0 from 25 to 29
task_40: (start=26, end=29, size=3, length=3)
Task 40 is scheduled in mode 0 from 26 to 29
task_41: (start=24, end=26, size=2, length=2)
Task 41 is scheduled in mode 0 from 24 to 26
task_42: (start=28, end=29, size=1, length=1)
Task 42 is scheduled in mode 0 from 28 to 29
task_43: (start=20, end=25, size=5, length=5)
Task 43 is scheduled in mode 0 from 20 to 25
task_44: (start=17, end=22, size=5, length=5)
Task 44 is scheduled in mode 1 from 17 to 22
task_45: (start=24, end=26, size=2, length=2)
Task 45 is scheduled in mode 0 from 24 to 26
task_46: (start=26, end=29, size=3, length=3)
Task 46 is scheduled in mode 0 from 26 to 29
task_47: (start=26, end=28, size=2, length=2)
Task 47 is scheduled in mode 0 from 26 to 28
task_48: (start=24, end=25, size=1, length=1)
Task 48 is scheduled in mode 0 from 24 to 25
task_49: (start=12, end=18, size=6, length=6)
Task 49 is scheduled in mode 2 from 12 to 18
task_50: (start=6, end=7, size=1, length=1)
Task 50 is scheduled in mode 0 from 6 to 7
task_51: (start=29, end=29, size=0, length=0)
Task 51 is scheduled in mode 0 from 29 to 29
Feasible solution found
Objective value: 29
Solution is 45.0 % worse than the lower bound.
